% Generated by MiniZinc 2.9.3
% Solver library: /home/icwmmarijnisse/Pumpkin/minizinc/lib
% Command line invocation: minizinc --compile --fzn ./instance.fzn --ozn ./instance.ozn --solver pumpkin ../../../../benchmarks/models/tsp/instances/tsp.mzn ../../../../benchmarks/models/tsp/instances/TSP_N15_1.dzn 

predicate pumpkin_circuit(array [int] of var int: x);
array [1..15] of int: X_INTRODUCED_33_ = [0,828,883,877,564,101,52,668,554,857,16,993,96,949,772];
array [1..15] of int: X_INTRODUCED_35_ = [828,0,870,243,171,417,498,493,219,886,411,925,61,169,389];
array [1..15] of int: X_INTRODUCED_37_ = [883,870,0,3,400,272,949,803,804,466,293,434,714,981,749];
array [1..15] of int: X_INTRODUCED_39_ = [877,243,3,0,803,570,678,736,499,159,195,304,223,992,60];
array [1..15] of int: X_INTRODUCED_41_ = [564,171,400,803,0,594,754,556,63,766,322,59,52,599,489];
array [1..15] of int: X_INTRODUCED_43_ = [101,417,272,570,594,0,515,942,874,544,162,59,984,521,83];
array [1..15] of int: X_INTRODUCED_45_ = [52,498,949,678,754,515,0,872,191,71,610,70,692,883,241];
array [1..15] of int: X_INTRODUCED_47_ = [668,493,803,736,556,942,872,0,414,123,965,912,584,253,593];
array [1..15] of int: X_INTRODUCED_49_ = [554,219,804,499,63,874,191,414,0,609,41,635,84,430,674];
array [1..15] of int: X_INTRODUCED_51_ = [857,886,466,159,766,544,71,123,609,0,598,579,536,324,958];
array [1..15] of int: X_INTRODUCED_53_ = [16,411,293,195,322,162,610,965,41,598,0,268,210,686,734];
array [1..15] of int: X_INTRODUCED_55_ = [993,925,434,304,59,59,70,912,635,579,268,0,322,245,272];
array [1..15] of int: X_INTRODUCED_57_ = [96,61,714,223,52,984,692,584,84,536,210,322,0,406,135];
array [1..15] of int: X_INTRODUCED_59_ = [949,169,981,992,599,521,883,253,430,324,686,245,406,0,688];
array [1..15] of int: X_INTRODUCED_61_ = [772,389,749,60,489,83,241,593,674,958,734,272,135,688,0];
array [1..16] of int: X_INTRODUCED_66_ = [1,-1,-1,-1,-1,-1,-1,-1,-1,-1,-1,-1,-1,-1,-1,-1];
var 1..15: X_INTRODUCED_16_;
var 1..15: X_INTRODUCED_17_;
var 1..15: X_INTRODUCED_18_;
var 1..15: X_INTRODUCED_19_;
var 1..15: X_INTRODUCED_20_;
var 1..15: X_INTRODUCED_21_;
var 1..15: X_INTRODUCED_22_;
var 1..15: X_INTRODUCED_23_;
var 1..15: X_INTRODUCED_24_;
var 1..15: X_INTRODUCED_25_;
var 1..15: X_INTRODUCED_26_;
var 1..15: X_INTRODUCED_27_;
var 1..15: X_INTRODUCED_28_;
var 1..15: X_INTRODUCED_29_;
var 1..15: X_INTRODUCED_30_;
var 0..14316: Objective:: output_var:: is_defined_var;
var 0..993: X_INTRODUCED_34_ ::var_is_introduced :: is_defined_var;
var 0..925: X_INTRODUCED_36_ ::var_is_introduced :: is_defined_var;
var 0..981: X_INTRODUCED_38_ ::var_is_introduced :: is_defined_var;
var 0..992: X_INTRODUCED_40_ ::var_is_introduced :: is_defined_var;
var 0..803: X_INTRODUCED_42_ ::var_is_introduced :: is_defined_var;
var 0..984: X_INTRODUCED_44_ ::var_is_introduced :: is_defined_var;
var 0..949: X_INTRODUCED_46_ ::var_is_introduced :: is_defined_var;
var 0..965: X_INTRODUCED_48_ ::var_is_introduced :: is_defined_var;
var 0..874: X_INTRODUCED_50_ ::var_is_introduced :: is_defined_var;
var 0..958: X_INTRODUCED_52_ ::var_is_introduced :: is_defined_var;
var 0..965: X_INTRODUCED_54_ ::var_is_introduced :: is_defined_var;
var 0..993: X_INTRODUCED_56_ ::var_is_introduced :: is_defined_var;
var 0..984: X_INTRODUCED_58_ ::var_is_introduced :: is_defined_var;
var 0..992: X_INTRODUCED_60_ ::var_is_introduced :: is_defined_var;
var 0..958: X_INTRODUCED_62_ ::var_is_introduced :: is_defined_var;
array [1..15] of var int: Successor:: output_array([1..15]) = [X_INTRODUCED_16_,X_INTRODUCED_17_,X_INTRODUCED_18_,X_INTRODUCED_19_,X_INTRODUCED_20_,X_INTRODUCED_21_,X_INTRODUCED_22_,X_INTRODUCED_23_,X_INTRODUCED_24_,X_INTRODUCED_25_,X_INTRODUCED_26_,X_INTRODUCED_27_,X_INTRODUCED_28_,X_INTRODUCED_29_,X_INTRODUCED_30_];
array [1..16] of var int: X_INTRODUCED_65_ ::var_is_introduced  = [Objective,X_INTRODUCED_34_,X_INTRODUCED_36_,X_INTRODUCED_38_,X_INTRODUCED_40_,X_INTRODUCED_42_,X_INTRODUCED_44_,X_INTRODUCED_46_,X_INTRODUCED_48_,X_INTRODUCED_50_,X_INTRODUCED_52_,X_INTRODUCED_54_,X_INTRODUCED_56_,X_INTRODUCED_58_,X_INTRODUCED_60_,X_INTRODUCED_62_];
constraint pumpkin_circuit(Successor);
constraint array_int_element(X_INTRODUCED_16_,X_INTRODUCED_33_,X_INTRODUCED_34_):: defines_var(X_INTRODUCED_34_);
constraint array_int_element(X_INTRODUCED_17_,X_INTRODUCED_35_,X_INTRODUCED_36_):: defines_var(X_INTRODUCED_36_);
constraint array_int_element(X_INTRODUCED_18_,X_INTRODUCED_37_,X_INTRODUCED_38_):: defines_var(X_INTRODUCED_38_);
constraint array_int_element(X_INTRODUCED_19_,X_INTRODUCED_39_,X_INTRODUCED_40_):: defines_var(X_INTRODUCED_40_);
constraint array_int_element(X_INTRODUCED_20_,X_INTRODUCED_41_,X_INTRODUCED_42_):: defines_var(X_INTRODUCED_42_);
constraint array_int_element(X_INTRODUCED_21_,X_INTRODUCED_43_,X_INTRODUCED_44_):: defines_var(X_INTRODUCED_44_);
constraint array_int_element(X_INTRODUCED_22_,X_INTRODUCED_45_,X_INTRODUCED_46_):: defines_var(X_INTRODUCED_46_);
constraint array_int_element(X_INTRODUCED_23_,X_INTRODUCED_47_,X_INTRODUCED_48_):: defines_var(X_INTRODUCED_48_);
constraint array_int_element(X_INTRODUCED_24_,X_INTRODUCED_49_,X_INTRODUCED_50_):: defines_var(X_INTRODUCED_50_);
constraint array_int_element(X_INTRODUCED_25_,X_INTRODUCED_51_,X_INTRODUCED_52_):: defines_var(X_INTRODUCED_52_);
constraint array_int_element(X_INTRODUCED_26_,X_INTRODUCED_53_,X_INTRODUCED_54_):: defines_var(X_INTRODUCED_54_);
constraint array_int_element(X_INTRODUCED_27_,X_INTRODUCED_55_,X_INTRODUCED_56_):: defines_var(X_INTRODUCED_56_);
constraint array_int_element(X_INTRODUCED_28_,X_INTRODUCED_57_,X_INTRODUCED_58_):: defines_var(X_INTRODUCED_58_);
constraint array_int_element(X_INTRODUCED_29_,X_INTRODUCED_59_,X_INTRODUCED_60_):: defines_var(X_INTRODUCED_60_);
constraint array_int_element(X_INTRODUCED_30_,X_INTRODUCED_61_,X_INTRODUCED_62_):: defines_var(X_INTRODUCED_62_);
constraint int_lin_eq(X_INTRODUCED_66_,X_INTRODUCED_65_,0):: defines_var(Objective);
solve  minimize Objective;
